
# PYTHONPATH must include directory above plugin directory.
#     Define either externally or here, then import plugin.
sys.path.insert(0, './..')
import dfmp2

molecule {
O
H 1 R
H 1 R 2 A

R = .9
A = 104.5
}

set {
  basis cc-pvdz
  df_basis_mp2 cc-pvdz-ri
}

set aomp2 {
  print 1
}

energy('dfmp2')

aomp2.exampleFN()

