
# PYTHONPATH must include directory above plugin directory.
#     Define either externally or here, then import plugin.
sys.path.insert(0, './..')
import dfmp2

molecule {
0 1
H 0.00  0.00 1.2
H 0.00  0.00 0.00
H -4.00 -4.00 -4.00
H -4.00 -4.00 -5.2
}

set {
  basis sto-3g
  df_basis_mp2 cc-pvdz-ri
  freeze_core true
  memory 1gb
}

set dfmp2 {
  print 1
}
energy('scf')
energy('mp2')
energy('dfmp2')

dfmp2.exampleFN()

