
# PYTHONPATH must include directory above plugin directory.
#     Define either externally or here, then import plugin.
sys.path.insert(0, './..')
import integral_trans

molecule {
O
H 1 R
H 1 R 2 A

R = .9
A = 104.5
symmetry c1
}

set {
  basis sto-3g
}

set integral_trans {
  print 1
}

energy('integral_trans')

integral_trans.exampleFN()

