
# PYTHONPATH must include directory above plugin directory.
#     Define either externally or here, then import plugin.
sys.path.insert(0, './..')
import aomp2

molecule {
O
H 1 R
H 1 R 2 A

R = .9
A = 104.5
}

set {
  basis cc-pvdz
}

set aomp2 {
  print 1
}

energy('aomp2')

aomp2.exampleFN()

